data/solutions/recovery/degenerate/intermediate/binding/degenerate_intermediate_instance31/20.sol
Elapsed time: 0.03
Upper bound: 16102803.0
Planning weighted value: 1.94973452091e+11
C[0]=16102803.0
C[1]=15928798.0
C[2]=15677316.0
C[3]=15125085.0
C[4]=14836161.0
C[5]=13738241.0
C[6]=13436219.0
C[7]=11905475.0
C[8]=11901867.0
C[9]=11760604.0
C[10]=11159220.0
C[11]=11075196.0
C[12]=10930538.0
C[13]=10713677.0
y[0]=1
y[1]=8
y[2]=7
y[3]=1
y[4]=6
y[5]=12
y[6]=5
y[7]=3
y[8]=12
y[9]=7
y[10]=0
y[11]=1
y[12]=9
y[13]=3
y[14]=7
y[15]=8
y[16]=4
y[17]=11
y[18]=5
y[19]=9
y[20]=3
y[21]=3
y[22]=13
y[23]=13
y[24]=5
y[25]=2
y[26]=4
y[27]=9
y[28]=1
y[29]=10
y[30]=2
y[31]=1
y[32]=5
y[33]=2
y[34]=6
y[35]=9
y[36]=11
y[37]=9
y[38]=8
y[39]=13
y[40]=4
y[41]=0
y[42]=8
y[43]=9
y[44]=11
y[45]=11
y[46]=6
y[47]=0
y[48]=3
y[49]=1
y[50]=10
y[51]=1
y[52]=12
y[53]=4
y[54]=10
y[55]=0
y[56]=9
y[57]=3
y[58]=10
y[59]=2
y[60]=6
y[61]=10
y[62]=11
y[63]=3
y[64]=4
y[65]=4
y[66]=1
y[67]=10
y[68]=5
y[69]=1
y[70]=10
y[71]=8
y[72]=7
y[73]=2
y[74]=2
y[75]=2
y[76]=4
y[77]=5
y[78]=1
y[79]=3
