data/solutions/recovery/degenerate/intermediate/binding/degenerate_intermediate_instance31/20.log

Log started (V12.6.3.0) Sun Apr 22 12:33:58 2018

New value for default parallel thread count: 1

Problem '/tmp/tmpzwu08u.pyomo.lp' read.
Read time = 0.01 sec. (1.11 ticks)

Problem name         : /tmp/tmpzwu08u.pyomo.lp
Objective sense      : Minimize
Variables            :    1136  [Nneg: 1,  Binary: 1120,  General Integer: 15]
Objective nonzeros   :       1
Linear constraints   :     189  [Less: 94,  Equal: 95]
  Nonzeros           :   80213
  RHS nonzeros       :      81

Variables            : Min LB: 0.000000         Max UB: 1.000000       
Objective nonzeros   : Min   : 1.000000         Max   : 1.000000       
Linear constraints   :
  Nonzeros           : Min   : 1.000000         Max   : 8036379.       
  RHS nonzeros       : Min   : 1.000000         Max   : 1.000000       
Tried aggregator 2 times.
MIP Presolve eliminated 156 rows and 1051 columns.
Aggregator did 14 substitutions.
Reduced MIP has 19 rows, 71 columns, and 154 nonzeros.
Reduced MIP has 70 binaries, 1 generals, 0 SOSs, and 0 indicators.
Presolve time = 0.00 sec. (4.83 ticks)
Found incumbent of value 3.6027295e+07 after 0.01 sec. (6.76 ticks)
Probing time = 0.00 sec. (0.09 ticks)
Tried aggregator 1 time.
Reduced MIP has 19 rows, 71 columns, and 154 nonzeros.
Reduced MIP has 70 binaries, 1 generals, 0 SOSs, and 0 indicators.
Presolve time = 0.00 sec. (0.11 ticks)
Probing time = 0.00 sec. (0.09 ticks)
Clique table members: 5.
MIP emphasis: balance optimality and feasibility.
MIP search method: dynamic search.
Parallel mode: none, using 1 thread.
Root relaxation solution time = 0.00 sec. (0.06 ticks)

        Nodes                                         Cuts/
   Node  Left     Objective  IInf  Best Integer    Best Bound    ItCnt     Gap

*     0+    0                       3.60273e+07   1.61028e+07            55.30%
      0     0   1.61028e+07     9   3.60273e+07   1.61028e+07       11   55.30%
*     0+    0                       1.79807e+07   1.61028e+07            10.44%
      0     0   1.61028e+07     8   1.79807e+07       Cuts: 6       20   10.44%
*     0+    0                       1.79240e+07   1.61028e+07            10.16%
      0     0   1.61028e+07     4   1.79240e+07       Cuts: 5       24   10.16%
*     0+    0                       1.61028e+07   1.61028e+07             0.00%
      0     0        cutoff         1.61028e+07   1.61028e+07       24    0.00%
Elapsed time = 0.01 sec. (7.69 ticks, tree = 0.01 MB, solutions = 4)

Clique cuts applied:  2
Implied bound cuts applied:  2
Mixed integer rounding cuts applied:  1
Gomory fractional cuts applied:  3

Root node processing (before b&c):
  Real time             =    0.01 sec. (7.74 ticks)
Sequential b&c:
  Real time             =    0.00 sec. (0.00 ticks)
                          ------------
Total (root+branch&cut) =    0.01 sec. (7.74 ticks)

Solution pool: 4 solutions saved.

MIP - Integer optimal solution:  Objective =  1.6102803000e+07
Solution time =    0.01 sec.  Iterations = 24  Nodes = 0
Deterministic time = 7.75 ticks  (1000.72 ticks/sec)


Incumbent solution written to file '/tmp/tmpwgJFtZ.cplex.sol'.
